row=9;
column=9;
Board=[|0,0,0,6,0,0,0,2,3|0,0,0,1,0,0,0,8,5|3,0,8,7,0,0,1,0,0|6,0,3,0,0,0,4,0,1|0,0,0,4,0,3,0,0,0|0,0,0,0,6,8,5,0,0|8,6,0,3,7,0,0,0,0|4,0,0,0,0,0,0,1,6|0,0,0,0,0,0,2,0,0|];
Region=[|1,1,2,2,2,2,2,3,3|1,1,1,2,2,2,3,3,3|1,1,5,5,2,6,3,3,3|1,1,4,5,5,6,6,3,6|4,4,4,5,5,5,6,6,6|4,4,4,5,5,9,9,6,6|4,7,4,8,8,8,9,9,9|7,7,7,7,8,8,9,9,9|7,7,7,7,8,8,8,8,9|];
horizontal=[|0,0,0,1,1,0,0,1|0,0,0,0,0,1,0,0|0,0,1,0,0,0,0,0|0,0,0,0,0,0,0,0|0,0,0,0,0,0,0,0|0,0,0,0,0,0,0,0|0,1,0,0,0,0,0,0|0,0,0,1,0,0,0,0|0,0,0,0,0,0,0,1|];
vertical=[|0,0,0,0,0,0,0,0,0|1,0,0,0,1,1,0,1,1|0,0,0,0,0,0,0,0,0|0,0,0,1,0,1,0,0,0|0,0,1,0,0,0,0,0,1|0,0,0,1,1,0,0,1,0|0,1,0,0,1,0,0,0,0|1,0,1,1,0,0,1,0,1|];
